Minimize

1.2 x_0_0 + 1.7 x_0_1 + 9.1 x_0_2 + 7.8 x_0_3 + 7.6 x_1_0 + 9.7 x_1_1 + 1.5 x_1_2 + 0.3 x_1_3 + 1.2 x_2_0 + 2.4 x_2_1 + 4.0 x_2_2 + 5.5 x_2_3 + 5.2 x_3_0 + 5.1 x_3_1 + 4.9 x_3_2 + 4.5 x_3_3 + 10.1 x_4_0 + 4.5 x_4_1 + 5.3 x_4_2 + 4.5 x_4_3


Subject To

a0: x_0_0 + x_1_0 + x_2_0 + x_3_0 + x_4_0 = 1
a1: x_0_1 + x_1_1 + x_2_1 + x_3_1 + x_4_1 = 1
a2: x_0_2 + x_1_2 + x_2_2 + x_3_2 + x_4_2 = 1
a3: x_0_3 + x_1_3 + x_2_3 + x_3_3 + x_4_3 = 1
b0: x_0_0 + x_0_1 + x_0_2 + x_0_3 <= 1
b1: x_1_0 + x_1_1 + x_1_2 + x_1_3 <= 1
b2: x_2_0 + x_2_1 + x_2_2 + x_2_3 <= 1
b3: x_3_0 + x_3_1 + x_3_2 + x_3_3 <= 1
b4: x_4_0 + x_4_1 + x_4_2 + x_4_3 <= 1




Binary

x_0_0 x_0_1 x_0_2 x_0_3 x_1_0 x_1_1 x_1_2 x_1_3 x_2_0 x_2_1 x_2_2 x_2_3 x_3_0 x_3_1 x_3_2 x_3_3 x_4_0 x_4_1 x_4_2 x_4_3

 


End
